W=5;
H=6;

MAX_TIME=16;
MAX_TRACKS=8;

TARGET=(6,5);

TRAINS=[(2,3,DOWN),(5,3,TOP)];
DECOYS=[];

INIT_POS=[
(2,3,STRAIGHT_TD),
(5,3,STRAIGHT_TD),
(6,2,STRAIGHT_RL),
(6,3,STRAIGHT_RL),
(6,4,STRAIGHT_RL),
(6,5,STRAIGHT_RL),
];
TUNNEL_PAIRS=[
  (1, 3, DOWN, 6, 1, RIGHT),
];

GATES=[];
ACTIVATIONS=[];

DSWITCHES=[];

STATIONS=[];

SEMAPHORE_SUPPLY=0;
